1600 3200
1 2 3
1 41 2
2 3 4
2 42 2
3 4 5
3 43 4
4 5 4
4 44 3
5 6 4
5 45 1
6 7 1
6 46 4
7 8 3
7 47 3
8 9 5
8 48 5
9 10 5
9 49 3
10 11 2
10 50 5
11 12 1
11 51 4
12 13 4
12 52 5
13 14 4
13 53 5
14 15 1
14 54 1
15 16 4
15 55 3
16 17 1
16 56 4
17 18 5
17 57 1
18 19 2
18 58 4
19 20 3
19 59 3
20 21 3
20 60 5
21 22 5
21 61 3
22 23 2
22 62 2
23 24 4
23 63 3
24 25 4
24 64 5
25 26 1
25 65 1
26 27 4
26 66 4
27 28 1
27 67 2
28 29 3
28 68 5
29 30 1
29 69 3
30 31 2
30 70 1
31 32 1
31 71 5
32 33 3
32 72 5
33 34 2
33 73 1
34 35 1
34 74 3
35 36 4
35 75 2
36 37 4
36 76 5
37 38 2
37 77 5
38 39 2
38 78 1
39 40 3
39 79 3
40 80 2
41 42 4
41 81 4
42 43 2
42 82 5
43 44 5
43 83 4
44 45 4
44 84 2
45 46 5
45 85 2
46 47 3
46 86 3
47 48 4
47 87 3
48 49 4
48 88 2
49 50 2
49 89 5
50 51 2
50 90 2
51 52 1
51 91 3
52 53 2
52 92 5
53 54 4
53 93 4
54 55 2
54 94 5
55 56 2
55 95 2
56 57 4
56 96 5
57 58 3
57 97 2
58 59 2
58 98 3
59 60 5
59 99 3
60 61 3
60 100 4
61 62 4
61 101 2
62 63 3
62 102 3
63 64 4
63 103 3
64 65 5
64 104 3
65 66 5
65 105 3
66 67 5
66 106 4
67 68 1
67 107 2
68 69 3
68 108 1
69 70 4
69 109 1
70 71 2
70 110 3
71 72 2
71 111 3
72 73 5
72 112 5
73 74 4
73 113 1
74 75 5
74 114 5
75 76 4
75 115 3
76 77 2
76 116 3
77 78 4
77 117 1
78 79 5
78 118 3
79 80 2
79 119 4
80 120 4
81 82 2
81 121 2
82 83 4
82 122 2
83 84 3
83 123 4
84 85 5
84 124 3
85 86 5
85 125 5
86 87 1
86 126 4
87 88 2
87 127 1
88 89 1
88 128 3
89 90 4
89 129 1
90 91 5
90 130 5
91 92 3
91 131 3
92 93 5
92 132 4
93 94 5
93 133 1
94 95 1
94 134 4
95 96 1
95 135 5
96 97 5
96 136 3
97 98 1
97 137 4
98 99 4
98 138 3
99 100 4
99 139 5
100 101 2
100 140 2
101 102 1
101 141 4
102 103 5
102 142 5
103 104 4
103 143 5
104 105 3
104 144 1
105 106 4
105 145 4
106 107 3
106 146 1
107 108 3
107 147 4
108 109 2
108 148 1
109 110 1
109 149 2
110 111 1
110 150 1
111 112 2
111 151 3
112 113 4
112 152 4
113 114 2
113 153 4
114 115 2
114 154 1
115 116 2
115 155 2
116 117 3
116 156 3
117 118 3
117 157 4
118 119 5
118 158 5
119 120 5
119 159 1
120 160 1
121 122 5
121 161 4
122 123 2
122 162 1
123 124 2
123 163 3
124 125 5
124 164 3
125 126 5
125 165 5
126 127 5
126 166 5
127 128 5
127 167 4
128 129 1
128 168 4
129 130 3
129 169 2
130 131 4
130 170 4
131 132 1
131 171 4
132 133 3
132 172 2
133 134 5
133 173 5
134 135 3
134 174 3
135 136 1
135 175 2
136 137 3
136 176 3
137 138 5
137 177 1
138 139 2
138 178 2
139 140 2
139 179 1
140 141 1
140 180 2
141 142 1
141 181 5
142 143 4
142 182 5
143 144 2
143 183 2
144 145 4
144 184 2
145 146 3
145 185 5
146 147 4
146 186 2
147 148 2
147 187 1
148 149 3
148 188 1
149 150 4
149 189 3
150 151 3
150 190 4
151 152 2
151 191 2
152 153 2
152 192 2
153 154 1
153 193 3
154 155 1
154 194 1
155 156 3
155 195 4
156 157 1
156 196 2
157 158 1
157 197 4
158 159 5
158 198 2
159 160 4
159 199 2
160 200 3
161 162 5
161 201 2
162 163 4
162 202 4
163 164 1
163 203 3
164 165 1
164 204 1
165 166 4
165 205 4
166 167 4
166 206 1
167 168 3
167 207 2
168 169 2
168 208 3
169 170 5
169 209 4
170 171 1
170 210 4
171 172 1
171 211 2
172 173 2
172 212 3
173 174 4
173 213 4
174 175 4
174 214 5
175 176 3
175 215 4
176 177 4
176 216 1
177 178 4
177 217 3
178 179 5
178 218 1
179 180 5
179 219 5
180 181 1
180 220 4
181 182 4
181 221 4
182 183 5
182 222 1
183 184 1
183 223 4
184 185 1
184 224 5
185 186 2
185 225 3
186 187 4
186 226 4
187 188 5
187 227 5
188 189 1
188 228 4
189 190 2
189 229 4
190 191 1
190 230 3
191 192 5
191 231 2
192 193 3
192 232 4
193 194 4
193 233 2
194 195 3
194 234 3
195 196 4
195 235 4
196 197 3
196 236 2
197 198 1
197 237 1
198 199 1
198 238 4
199 200 2
199 239 4
200 240 3
201 202 1
201 241 1
202 203 1
202 242 3
203 204 1
203 243 1
204 205 3
204 244 2
205 206 3
205 245 5
206 207 2
206 246 4
207 208 1
207 247 5
208 209 2
208 248 3
209 210 4
209 249 1
210 211 5
210 250 3
211 212 2
211 251 5
212 213 2
212 252 3
213 214 4
213 253 1
214 215 5
214 254 1
215 216 1
215 255 5
216 217 1
216 256 2
217 218 1
217 257 3
218 219 5
218 258 1
219 220 4
219 259 4
220 221 1
220 260 5
221 222 2
221 261 5
222 223 3
222 262 4
223 224 4
223 263 3
224 225 1
224 264 1
225 226 2
225 265 3
226 227 3
226 266 1
227 228 2
227 267 3
228 229 3
228 268 1
229 230 1
229 269 1
230 231 4
230 270 3
231 232 3
231 271 1
232 233 3
232 272 1
233 234 4
233 273 4
234 235 2
234 274 4
235 236 2
235 275 4
236 237 5
236 276 2
237 238 1
237 277 5
238 239 4
238 278 1
239 240 1
239 279 3
240 280 1
241 242 1
241 281 1
242 243 2
242 282 5
243 244 3
243 283 4
244 245 3
244 284 4
245 246 1
245 285 4
246 247 5
246 286 4
247 248 5
247 287 1
248 249 4
248 288 2
249 250 1
249 289 4
250 251 5
250 290 3
251 252 1
251 291 1
252 253 1
252 292 2
253 254 3
253 293 1
254 255 4
254 294 4
255 256 4
255 295 1
256 257 2
256 296 5
257 258 5
257 297 1
258 259 2
258 298 1
259 260 4
259 299 2
260 261 1
260 300 2
261 262 3
261 301 1
262 263 4
262 302 1
263 264 4
263 303 4
264 265 2
264 304 3
265 266 2
265 305 3
266 267 4
266 306 4
267 268 1
267 307 4
268 269 3
268 308 4
269 270 3
269 309 3
270 271 1
270 310 4
271 272 5
271 311 4
272 273 2
272 312 1
273 274 5
273 313 3
274 275 5
274 314 1
275 276 5
275 315 1
276 277 3
276 316 2
277 278 2
277 317 2
278 279 3
278 318 2
279 280 3
279 319 5
280 320 3
281 282 1
281 321 2
282 283 5
282 322 1
283 284 2
283 323 1
284 285 2
284 324 5
285 286 1
285 325 2
286 287 2
286 326 5
287 288 1
287 327 4
288 289 5
288 328 5
289 290 5
289 329 5
290 291 2
290 330 5
291 292 5
291 331 5
292 293 4
292 332 1
293 294 4
293 333 3
294 295 3
294 334 2
295 296 3
295 335 2
296 297 4
296 336 4
297 298 4
297 337 2
298 299 1
298 338 1
299 300 5
299 339 3
300 301 3
300 340 5
301 302 1
301 341 4
302 303 4
302 342 3
303 304 4
303 343 1
304 305 3
304 344 3
305 306 2
305 345 1
306 307 4
306 346 5
307 308 2
307 347 5
308 309 3
308 348 3
309 310 4
309 349 2
310 311 4
310 350 1
311 312 3
311 351 3
312 313 1
312 352 3
313 314 2
313 353 5
314 315 2
314 354 3
315 316 1
315 355 3
316 317 1
316 356 1
317 318 3
317 357 4
318 319 2
318 358 2
319 320 5
319 359 2
320 360 3
321 322 2
321 361 5
322 323 1
322 362 4
323 324 3
323 363 4
324 325 4
324 364 5
325 326 5
325 365 2
326 327 4
326 366 5
327 328 4
327 367 2
328 329 5
328 368 5
329 330 2
329 369 4
330 331 1
330 370 4
331 332 3
331 371 3
332 333 4
332 372 4
333 334 2
333 373 4
334 335 5
334 374 1
335 336 4
335 375 5
336 337 4
336 376 3
337 338 1
337 377 3
338 339 5
338 378 3
339 340 3
339 379 2
340 341 2
340 380 4
341 342 3
341 381 2
342 343 3
342 382 4
343 344 3
343 383 4
344 345 5
344 384 1
345 346 2
345 385 4
346 347 5
346 386 5
347 348 4
347 387 2
348 349 4
348 388 4
349 350 1
349 389 2
350 351 1
350 390 5
351 352 5
351 391 3
352 353 2
352 392 4
353 354 2
353 393 1
354 355 2
354 394 3
355 356 2
355 395 2
356 357 1
356 396 1
357 358 4
357 397 5
358 359 2
358 398 5
359 360 2
359 399 5
360 400 4
361 362 4
361 401 1
362 363 3
362 402 2
363 364 3
363 403 2
364 365 1
364 404 5
365 366 2
365 405 4
366 367 2
366 406 4
367 368 5
367 407 1
368 369 3
368 408 1
369 370 5
369 409 2
370 371 5
370 410 3
371 372 2
371 411 2
372 373 3
372 412 2
373 374 1
373 413 5
374 375 4
374 414 1
375 376 5
375 415 5
376 377 2
376 416 2
377 378 1
377 417 1
378 379 5
378 418 2
379 380 5
379 419 3
380 381 4
380 420 3
381 382 5
381 421 4
382 383 4
382 422 2
383 384 3
383 423 3
384 385 4
384 424 1
385 386 2
385 425 1
386 387 1
386 426 5
387 388 4
387 427 1
388 389 2
388 428 4
389 390 2
389 429 3
390 391 4
390 430 4
391 392 4
391 431 2
392 393 1
392 432 4
393 394 1
393 433 4
394 395 4
394 434 2
395 396 5
395 435 3
396 397 2
396 436 2
397 398 1
397 437 1
398 399 5
398 438 4
399 400 1
399 439 4
400 440 5
401 402 4
401 441 1
402 403 1
402 442 1
403 404 1
403 443 1
404 405 2
404 444 2
405 406 3
405 445 3
406 407 4
406 446 3
407 408 1
407 447 5
408 409 3
408 448 5
409 410 3
409 449 5
410 411 2
410 450 1
411 412 5
411 451 4
412 413 3
412 452 4
413 414 2
413 453 2
414 415 3
414 454 4
415 416 3
415 455 5
416 417 3
416 456 4
417 418 1
417 457 4
418 419 2
418 458 2
419 420 1
419 459 5
420 421 2
420 460 2
421 422 2
421 461 4
422 423 4
422 462 4
423 424 5
423 463 5
424 425 2
424 464 2
425 426 4
425 465 1
426 427 3
426 466 4
427 428 4
427 467 4
428 429 4
428 468 4
429 430 5
429 469 3
430 431 4
430 470 2
431 432 4
431 471 2
432 433 4
432 472 3
433 434 5
433 473 1
434 435 3
434 474 5
435 436 1
435 475 1
436 437 4
436 476 5
437 438 5
437 477 1
438 439 2
438 478 5
439 440 3
439 479 4
440 480 5
441 442 2
441 481 3
442 443 1
442 482 5
443 444 3
443 483 1
444 445 3
444 484 5
445 446 1
445 485 2
446 447 1
446 486 1
447 448 5
447 487 4
448 449 4
448 488 5
449 450 2
449 489 1
450 451 5
450 490 5
451 452 4
451 491 5
452 453 3
452 492 1
453 454 5
453 493 4
454 455 2
454 494 2
455 456 4
455 495 4
456 457 1
456 496 3
457 458 3
457 497 4
458 459 3
458 498 5
459 460 2
459 499 3
460 461 4
460 500 3
461 462 4
461 501 2
462 463 5
462 502 1
463 464 5
463 503 3
464 465 5
464 504 1
465 466 2
465 505 3
466 467 2
466 506 3
467 468 2
467 507 1
468 469 3
468 508 3
469 470 4
469 509 4
470 471 3
470 510 5
471 472 5
471 511 1
472 473 4
472 512 2
473 474 5
473 513 3
474 475 1
474 514 5
475 476 5
475 515 1
476 477 5
476 516 5
477 478 2
477 517 1
478 479 4
478 518 4
479 480 1
479 519 4
480 520 1
481 482 1
481 521 4
482 483 5
482 522 4
483 484 4
483 523 2
484 485 1
484 524 3
485 486 2
485 525 5
486 487 4
486 526 4
487 488 4
487 527 4
488 489 1
488 528 1
489 490 1
489 529 4
490 491 3
490 530 2
491 492 4
491 531 5
492 493 4
492 532 1
493 494 5
493 533 3
494 495 1
494 534 2
495 496 3
495 535 3
496 497 5
496 536 2
497 498 4
497 537 3
498 499 2
498 538 3
499 500 2
499 539 3
500 501 2
500 540 1
501 502 1
501 541 4
502 503 2
502 542 2
503 504 2
503 543 2
504 505 1
504 544 2
505 506 1
505 545 1
506 507 2
506 546 2
507 508 2
507 547 2
508 509 5
508 548 3
509 510 4
509 549 5
510 511 5
510 550 1
511 512 4
511 551 4
512 513 3
512 552 5
513 514 1
513 553 1
514 515 4
514 554 2
515 516 3
515 555 4
516 517 5
516 556 5
517 518 1
517 557 1
518 519 4
518 558 1
519 520 1
519 559 5
520 560 5
521 522 2
521 561 1
522 523 5
522 562 3
523 524 5
523 563 1
524 525 5
524 564 1
525 526 2
525 565 1
526 527 4
526 566 5
527 528 2
527 567 4
528 529 4
528 568 1
529 530 4
529 569 3
530 531 2
530 570 5
531 532 4
531 571 4
532 533 3
532 572 3
533 534 2
533 573 3
534 535 4
534 574 3
535 536 2
535 575 4
536 537 5
536 576 4
537 538 2
537 577 2
538 539 5
538 578 5
539 540 2
539 579 1
540 541 2
540 580 2
541 542 1
541 581 3
542 543 1
542 582 3
543 544 5
543 583 4
544 545 1
544 584 4
545 546 1
545 585 3
546 547 1
546 586 4
547 548 3
547 587 5
548 549 1
548 588 3
549 550 4
549 589 2
550 551 5
550 590 4
551 552 4
551 591 4
552 553 4
552 592 5
553 554 3
553 593 3
554 555 1
554 594 4
555 556 2
555 595 5
556 557 5
556 596 4
557 558 4
557 597 3
558 559 4
558 598 5
559 560 1
559 599 5
560 600 3
561 562 3
561 601 4
562 563 3
562 602 4
563 564 1
563 603 3
564 565 4
564 604 1
565 566 2
565 605 2
566 567 4
566 606 3
567 568 4
567 607 3
568 569 4
568 608 3
569 570 3
569 609 5
570 571 1
570 610 3
571 572 4
571 611 2
572 573 4
572 612 3
573 574 2
573 613 1
574 575 2
574 614 3
575 576 1
575 615 5
576 577 2
576 616 1
577 578 3
577 617 4
578 579 1
578 618 3
579 580 3
579 619 3
580 581 2
580 620 2
581 582 2
581 621 3
582 583 4
582 622 1
583 584 4
583 623 4
584 585 4
584 624 3
585 586 5
585 625 3
586 587 3
586 626 2
587 588 5
587 627 1
588 589 2
588 628 3
589 590 4
589 629 1
590 591 1
590 630 5
591 592 5
591 631 1
592 593 4
592 632 1
593 594 2
593 633 3
594 595 4
594 634 5
595 596 4
595 635 1
596 597 5
596 636 3
597 598 2
597 637 2
598 599 5
598 638 5
599 600 4
599 639 1
600 640 5
601 602 2
601 641 4
602 603 1
602 642 1
603 604 3
603 643 5
604 605 4
604 644 4
605 606 4
605 645 5
606 607 4
606 646 4
607 608 5
607 647 5
608 609 5
608 648 5
609 610 5
609 649 4
610 611 4
610 650 1
611 612 1
611 651 2
612 613 1
612 652 4
613 614 2
613 653 5
614 615 4
614 654 4
615 616 2
615 655 5
616 617 5
616 656 5
617 618 3
617 657 4
618 619 2
618 658 1
619 620 3
619 659 4
620 621 4
620 660 2
621 622 3
621 661 5
622 623 3
622 662 1
623 624 2
623 663 4
624 625 1
624 664 4
625 626 5
625 665 2
626 627 4
626 666 5
627 628 5
627 667 5
628 629 5
628 668 2
629 630 5
629 669 3
630 631 4
630 670 3
631 632 1
631 671 5
632 633 3
632 672 1
633 634 4
633 673 3
634 635 5
634 674 2
635 636 3
635 675 2
636 637 3
636 676 2
637 638 4
637 677 1
638 639 2
638 678 2
639 640 4
639 679 3
640 680 3
641 642 1
641 681 2
642 643 3
642 682 3
643 644 4
643 683 1
644 645 4
644 684 4
645 646 1
645 685 4
646 647 1
646 686 4
647 648 2
647 687 3
648 649 4
648 688 4
649 650 1
649 689 4
650 651 5
650 690 1
651 652 1
651 691 5
652 653 5
652 692 3
653 654 4
653 693 5
654 655 4
654 694 1
655 656 3
655 695 2
656 657 5
656 696 5
657 658 5
657 697 5
658 659 1
658 698 2
659 660 2
659 699 4
660 661 5
660 700 5
661 662 3
661 701 3
662 663 4
662 702 4
663 664 2
663 703 2
664 665 4
664 704 1
665 666 3
665 705 3
666 667 2
666 706 4
667 668 3
667 707 2
668 669 1
668 708 5
669 670 4
669 709 2
670 671 4
670 710 5
671 672 5
671 711 3
672 673 2
672 712 2
673 674 5
673 713 1
674 675 5
674 714 3
675 676 1
675 715 4
676 677 2
676 716 3
677 678 4
677 717 4
678 679 1
678 718 2
679 680 4
679 719 1
680 720 4
681 682 3
681 721 1
682 683 2
682 722 2
683 684 5
683 723 2
684 685 2
684 724 4
685 686 4
685 725 2
686 687 5
686 726 3
687 688 5
687 727 5
688 689 4
688 728 4
689 690 3
689 729 3
690 691 5
690 730 2
691 692 5
691 731 1
692 693 4
692 732 3
693 694 5
693 733 5
694 695 1
694 734 2
695 696 1
695 735 4
696 697 5
696 736 2
697 698 3
697 737 5
698 699 5
698 738 5
699 700 1
699 739 2
700 701 2
700 740 2
701 702 1
701 741 3
702 703 4
702 742 2
703 704 1
703 743 3
704 705 5
704 744 2
705 706 1
705 745 2
706 707 4
706 746 5
707 708 2
707 747 2
708 709 2
708 748 5
709 710 1
709 749 1
710 711 3
710 750 5
711 712 4
711 751 2
712 713 3
712 752 1
713 714 5
713 753 4
714 715 3
714 754 3
715 716 5
715 755 1
716 717 5
716 756 2
717 718 1
717 757 1
718 719 4
718 758 1
719 720 3
719 759 3
720 760 2
721 722 1
721 761 4
722 723 3
722 762 4
723 724 4
723 763 1
724 725 2
724 764 5
725 726 4
725 765 4
726 727 2
726 766 4
727 728 1
727 767 5
728 729 5
728 768 1
729 730 4
729 769 3
730 731 4
730 770 3
731 732 4
731 771 1
732 733 5
732 772 2
733 734 3
733 773 5
734 735 1
734 774 1
735 736 1
735 775 1
736 737 4
736 776 5
737 738 1
737 777 4
738 739 5
738 778 1
739 740 3
739 779 3
740 741 5
740 780 5
741 742 4
741 781 4
742 743 4
742 782 4
743 744 3
743 783 4
744 745 5
744 784 1
745 746 5
745 785 2
746 747 3
746 786 1
747 748 5
747 787 2
748 749 1
748 788 2
749 750 1
749 789 4
750 751 2
750 790 4
751 752 5
751 791 1
752 753 2
752 792 4
753 754 5
753 793 2
754 755 4
754 794 1
755 756 5
755 795 5
756 757 5
756 796 3
757 758 3
757 797 2
758 759 5
758 798 1
759 760 1
759 799 4
760 800 2
761 762 2
761 801 1
762 763 3
762 802 2
763 764 5
763 803 3
764 765 1
764 804 5
765 766 2
765 805 5
766 767 4
766 806 5
767 768 2
767 807 4
768 769 5
768 808 1
769 770 2
769 809 2
770 771 2
770 810 5
771 772 2
771 811 4
772 773 4
772 812 4
773 774 5
773 813 3
774 775 5
774 814 5
775 776 5
775 815 5
776 777 3
776 816 5
777 778 3
777 817 3
778 779 1
778 818 2
779 780 1
779 819 3
780 781 5
780 820 2
781 782 1
781 821 2
782 783 3
782 822 2
783 784 1
783 823 3
784 785 2
784 824 1
785 786 3
785 825 1
786 787 2
786 826 5
787 788 4
787 827 2
788 789 2
788 828 4
789 790 1
789 829 2
790 791 2
790 830 2
791 792 4
791 831 1
792 793 3
792 832 5
793 794 3
793 833 3
794 795 1
794 834 1
795 796 4
795 835 1
796 797 3
796 836 4
797 798 1
797 837 2
798 799 5
798 838 1
799 800 3
799 839 4
800 840 2
801 802 2
801 841 4
802 803 3
802 842 2
803 804 2
803 843 4
804 805 2
804 844 5
805 806 4
805 845 2
806 807 5
806 846 4
807 808 3
807 847 2
808 809 1
808 848 1
809 810 2
809 849 3
810 811 3
810 850 5
811 812 1
811 851 4
812 813 5
812 852 5
813 814 5
813 853 4
814 815 4
814 854 1
815 816 1
815 855 1
816 817 4
816 856 4
817 818 1
817 857 4
818 819 5
818 858 3
819 820 2
819 859 5
820 821 1
820 860 5
821 822 2
821 861 1
822 823 3
822 862 2
823 824 3
823 863 1
824 825 2
824 864 2
825 826 4
825 865 3
826 827 4
826 866 4
827 828 4
827 867 3
828 829 1
828 868 5
829 830 1
829 869 2
830 831 2
830 870 5
831 832 1
831 871 3
832 833 2
832 872 1
833 834 5
833 873 3
834 835 4
834 874 4
835 836 1
835 875 5
836 837 4
836 876 1
837 838 5
837 877 4
838 839 2
838 878 2
839 840 5
839 879 1
840 880 5
841 842 4
841 881 2
842 843 5
842 882 1
843 844 4
843 883 4
844 845 1
844 884 3
845 846 4
845 885 3
846 847 1
846 886 2
847 848 5
847 887 1
848 849 3
848 888 1
849 850 1
849 889 5
850 851 4
850 890 3
851 852 3
851 891 3
852 853 2
852 892 4
853 854 5
853 893 3
854 855 4
854 894 5
855 856 4
855 895 5
856 857 5
856 896 4
857 858 2
857 897 3
858 859 1
858 898 2
859 860 1
859 899 3
860 861 3
860 900 5
861 862 3
861 901 3
862 863 5
862 902 4
863 864 2
863 903 3
864 865 1
864 904 1
865 866 3
865 905 2
866 867 1
866 906 5
867 868 5
867 907 3
868 869 4
868 908 3
869 870 3
869 909 3
870 871 4
870 910 2
871 872 1
871 911 4
872 873 1
872 912 4
873 874 4
873 913 3
874 875 1
874 914 4
875 876 2
875 915 5
876 877 5
876 916 5
877 878 2
877 917 2
878 879 4
878 918 5
879 880 4
879 919 4
880 920 5
881 882 1
881 921 1
882 883 2
882 922 1
883 884 3
883 923 2
884 885 1
884 924 1
885 886 5
885 925 4
886 887 4
886 926 3
887 888 2
887 927 1
888 889 1
888 928 2
889 890 2
889 929 2
890 891 5
890 930 2
891 892 1
891 931 5
892 893 4
892 932 1
893 894 3
893 933 4
894 895 1
894 934 4
895 896 5
895 935 4
896 897 5
896 936 1
897 898 1
897 937 3
898 899 2
898 938 1
899 900 1
899 939 2
900 901 3
900 940 5
901 902 1
901 941 2
902 903 1
902 942 4
903 904 1
903 943 1
904 905 5
904 944 5
905 906 1
905 945 3
906 907 4
906 946 4
907 908 3
907 947 2
908 909 4
908 948 2
909 910 5
909 949 1
910 911 4
910 950 5
911 912 3
911 951 1
912 913 3
912 952 4
913 914 4
913 953 2
914 915 2
914 954 2
915 916 5
915 955 5
916 917 1
916 956 4
917 918 2
917 957 5
918 919 2
918 958 3
919 920 4
919 959 3
920 960 2
921 922 5
921 961 1
922 923 3
922 962 3
923 924 3
923 963 2
924 925 1
924 964 5
925 926 2
925 965 1
926 927 3
926 966 5
927 928 3
927 967 2
928 929 5
928 968 4
929 930 4
929 969 2
930 931 1
930 970 1
931 932 4
931 971 4
932 933 5
932 972 3
933 934 5
933 973 3
934 935 4
934 974 2
935 936 4
935 975 2
936 937 4
936 976 5
937 938 3
937 977 5
938 939 1
938 978 3
939 940 4
939 979 3
940 941 5
940 980 5
941 942 1
941 981 2
942 943 2
942 982 1
943 944 4
943 983 5
944 945 2
944 984 1
945 946 3
945 985 1
946 947 1
946 986 2
947 948 3
947 987 2
948 949 4
948 988 3
949 950 3
949 989 3
950 951 2
950 990 2
951 952 4
951 991 1
952 953 1
952 992 5
953 954 3
953 993 3
954 955 2
954 994 1
955 956 5
955 995 3
956 957 2
956 996 3
957 958 2
957 997 2
958 959 3
958 998 4
959 960 2
959 999 5
960 1000 3
961 962 3
961 1001 3
962 963 5
962 1002 1
963 964 4
963 1003 1
964 965 5
964 1004 1
965 966 2
965 1005 4
966 967 3
966 1006 3
967 968 3
967 1007 2
968 969 4
968 1008 4
969 970 3
969 1009 1
970 971 1
970 1010 3
971 972 4
971 1011 1
972 973 5
972 1012 3
973 974 3
973 1013 2
974 975 3
974 1014 1
975 976 3
975 1015 2
976 977 3
976 1016 5
977 978 3
977 1017 5
978 979 5
978 1018 4
979 980 4
979 1019 2
980 981 1
980 1020 5
981 982 3
981 1021 2
982 983 2
982 1022 4
983 984 2
983 1023 2
984 985 3
984 1024 2
985 986 5
985 1025 4
986 987 1
986 1026 4
987 988 3
987 1027 2
988 989 4
988 1028 2
989 990 1
989 1029 5
990 991 4
990 1030 3
991 992 5
991 1031 4
992 993 4
992 1032 2
993 994 5
993 1033 1
994 995 5
994 1034 2
995 996 3
995 1035 3
996 997 3
996 1036 2
997 998 1
997 1037 2
998 999 1
998 1038 3
999 1000 5
999 1039 3
1000 1040 4
1001 1002 3
1001 1041 5
1002 1003 3
1002 1042 1
1003 1004 5
1003 1043 5
1004 1005 1
1004 1044 4
1005 1006 3
1005 1045 2
1006 1007 2
1006 1046 5
1007 1008 1
1007 1047 1
1008 1009 4
1008 1048 5
1009 1010 5
1009 1049 4
1010 1011 4
1010 1050 1
1011 1012 5
1011 1051 4
1012 1013 4
1012 1052 5
1013 1014 4
1013 1053 5
1014 1015 1
1014 1054 3
1015 1016 5
1015 1055 2
1016 1017 1
1016 1056 5
1017 1018 2
1017 1057 5
1018 1019 3
1018 1058 1
1019 1020 5
1019 1059 4
1020 1021 1
1020 1060 5
1021 1022 5
1021 1061 2
1022 1023 1
1022 1062 5
1023 1024 1
1023 1063 1
1024 1025 5
1024 1064 2
1025 1026 1
1025 1065 5
1026 1027 1
1026 1066 5
1027 1028 3
1027 1067 1
1028 1029 3
1028 1068 4
1029 1030 1
1029 1069 1
1030 1031 5
1030 1070 4
1031 1032 3
1031 1071 5
1032 1033 5
1032 1072 4
1033 1034 4
1033 1073 2
1034 1035 1
1034 1074 3
1035 1036 1
1035 1075 3
1036 1037 5
1036 1076 5
1037 1038 3
1037 1077 3
1038 1039 5
1038 1078 3
1039 1040 2
1039 1079 3
1040 1080 2
1041 1042 5
1041 1081 1
1042 1043 5
1042 1082 1
1043 1044 3
1043 1083 2
1044 1045 2
1044 1084 4
1045 1046 1
1045 1085 2
1046 1047 3
1046 1086 1
1047 1048 4
1047 1087 3
1048 1049 4
1048 1088 2
1049 1050 3
1049 1089 5
1050 1051 5
1050 1090 1
1051 1052 2
1051 1091 3
1052 1053 4
1052 1092 4
1053 1054 1
1053 1093 5
1054 1055 4
1054 1094 3
1055 1056 4
1055 1095 4
1056 1057 4
1056 1096 1
1057 1058 1
1057 1097 3
1058 1059 2
1058 1098 2
1059 1060 2
1059 1099 4
1060 1061 3
1060 1100 4
1061 1062 3
1061 1101 1
1062 1063 1
1062 1102 5
1063 1064 3
1063 1103 4
1064 1065 5
1064 1104 4
1065 1066 5
1065 1105 5
1066 1067 5
1066 1106 3
1067 1068 4
1067 1107 3
1068 1069 2
1068 1108 2
1069 1070 4
1069 1109 5
1070 1071 5
1070 1110 1
1071 1072 2
1071 1111 3
1072 1073 1
1072 1112 5
1073 1074 3
1073 1113 3
1074 1075 4
1074 1114 4
1075 1076 2
1075 1115 4
1076 1077 5
1076 1116 1
1077 1078 2
1077 1117 2
1078 1079 2
1078 1118 3
1079 1080 5
1079 1119 2
1080 1120 1
1081 1082 2
1081 1121 4
1082 1083 4
1082 1122 3
1083 1084 1
1083 1123 2
1084 1085 1
1084 1124 1
1085 1086 3
1085 1125 2
1086 1087 3
1086 1126 5
1087 1088 4
1087 1127 2
1088 1089 5
1088 1128 2
1089 1090 2
1089 1129 5
1090 1091 1
1090 1130 1
1091 1092 5
1091 1131 5
1092 1093 1
1092 1132 4
1093 1094 5
1093 1133 3
1094 1095 4
1094 1134 3
1095 1096 1
1095 1135 3
1096 1097 4
1096 1136 1
1097 1098 3
1097 1137 5
1098 1099 1
1098 1138 1
1099 1100 5
1099 1139 2
1100 1101 1
1100 1140 1
1101 1102 1
1101 1141 2
1102 1103 2
1102 1142 4
1103 1104 5
1103 1143 1
1104 1105 2
1104 1144 3
1105 1106 5
1105 1145 1
1106 1107 4
1106 1146 3
1107 1108 2
1107 1147 5
1108 1109 1
1108 1148 2
1109 1110 4
1109 1149 4
1110 1111 3
1110 1150 5
1111 1112 3
1111 1151 1
1112 1113 2
1112 1152 1
1113 1114 3
1113 1153 5
1114 1115 5
1114 1154 2
1115 1116 2
1115 1155 4
1116 1117 1
1116 1156 3
1117 1118 2
1117 1157 3
1118 1119 2
1118 1158 2
1119 1120 3
1119 1159 4
1120 1160 3
1121 1122 2
1121 1161 2
1122 1123 3
1122 1162 4
1123 1124 3
1123 1163 3
1124 1125 3
1124 1164 5
1125 1126 5
1125 1165 4
1126 1127 3
1126 1166 1
1127 1128 1
1127 1167 2
1128 1129 3
1128 1168 5
1129 1130 2
1129 1169 5
1130 1131 2
1130 1170 2
1131 1132 4
1131 1171 5
1132 1133 4
1132 1172 1
1133 1134 3
1133 1173 5
1134 1135 3
1134 1174 5
1135 1136 3
1135 1175 1
1136 1137 1
1136 1176 1
1137 1138 4
1137 1177 2
1138 1139 1
1138 1178 2
1139 1140 1
1139 1179 1
1140 1141 1
1140 1180 2
1141 1142 5
1141 1181 2
1142 1143 3
1142 1182 5
1143 1144 4
1143 1183 5
1144 1145 1
1144 1184 2
1145 1146 4
1145 1185 5
1146 1147 3
1146 1186 5
1147 1148 2
1147 1187 5
1148 1149 5
1148 1188 4
1149 1150 3
1149 1189 1
1150 1151 5
1150 1190 2
1151 1152 2
1151 1191 1
1152 1153 2
1152 1192 2
1153 1154 3
1153 1193 2
1154 1155 3
1154 1194 2
1155 1156 1
1155 1195 3
1156 1157 3
1156 1196 3
1157 1158 2
1157 1197 3
1158 1159 5
1158 1198 2
1159 1160 4
1159 1199 2
1160 1200 3
1161 1162 3
1161 1201 3
1162 1163 5
1162 1202 3
1163 1164 2
1163 1203 3
1164 1165 4
1164 1204 1
1165 1166 5
1165 1205 1
1166 1167 4
1166 1206 1
1167 1168 3
1167 1207 5
1168 1169 5
1168 1208 1
1169 1170 2
1169 1209 3
1170 1171 1
1170 1210 4
1171 1172 3
1171 1211 4
1172 1173 2
1172 1212 1
1173 1174 2
1173 1213 5
1174 1175 4
1174 1214 1
1175 1176 4
1175 1215 3
1176 1177 4
1176 1216 1
1177 1178 4
1177 1217 5
1178 1179 5
1178 1218 1
1179 1180 4
1179 1219 1
1180 1181 4
1180 1220 3
1181 1182 4
1181 1221 1
1182 1183 5
1182 1222 1
1183 1184 1
1183 1223 5
1184 1185 4
1184 1224 2
1185 1186 2
1185 1225 2
1186 1187 3
1186 1226 4
1187 1188 4
1187 1227 1
1188 1189 3
1188 1228 3
1189 1190 1
1189 1229 3
1190 1191 3
1190 1230 1
1191 1192 5
1191 1231 5
1192 1193 1
1192 1232 5
1193 1194 2
1193 1233 5
1194 1195 2
1194 1234 5
1195 1196 5
1195 1235 5
1196 1197 3
1196 1236 2
1197 1198 2
1197 1237 4
1198 1199 4
1198 1238 1
1199 1200 3
1199 1239 3
1200 1240 3
1201 1202 3
1201 1241 3
1202 1203 2
1202 1242 1
1203 1204 4
1203 1243 5
1204 1205 4
1204 1244 4
1205 1206 4
1205 1245 1
1206 1207 2
1206 1246 3
1207 1208 2
1207 1247 5
1208 1209 4
1208 1248 1
1209 1210 1
1209 1249 2
1210 1211 3
1210 1250 4
1211 1212 5
1211 1251 2
1212 1213 4
1212 1252 2
1213 1214 5
1213 1253 4
1214 1215 3
1214 1254 3
1215 1216 1
1215 1255 3
1216 1217 3
1216 1256 2
1217 1218 5
1217 1257 5
1218 1219 5
1218 1258 1
1219 1220 3
1219 1259 3
1220 1221 4
1220 1260 1
1221 1222 4
1221 1261 1
1222 1223 2
1222 1262 2
1223 1224 1
1223 1263 3
1224 1225 2
1224 1264 2
1225 1226 1
1225 1265 5
1226 1227 4
1226 1266 1
1227 1228 3
1227 1267 1
1228 1229 5
1228 1268 1
1229 1230 2
1229 1269 1
1230 1231 5
1230 1270 2
1231 1232 5
1231 1271 3
1232 1233 3
1232 1272 3
1233 1234 5
1233 1273 2
1234 1235 4
1234 1274 4
1235 1236 4
1235 1275 5
1236 1237 3
1236 1276 1
1237 1238 4
1237 1277 4
1238 1239 3
1238 1278 3
1239 1240 3
1239 1279 3
1240 1280 3
1241 1242 3
1241 1281 4
1242 1243 5
1242 1282 3
1243 1244 1
1243 1283 1
1244 1245 4
1244 1284 1
1245 1246 4
1245 1285 4
1246 1247 1
1246 1286 5
1247 1248 1
1247 1287 1
1248 1249 2
1248 1288 4
1249 1250 4
1249 1289 3
1250 1251 4
1250 1290 3
1251 1252 3
1251 1291 3
1252 1253 3
1252 1292 2
1253 1254 3
1253 1293 1
1254 1255 5
1254 1294 3
1255 1256 1
1255 1295 5
1256 1257 1
1256 1296 4
1257 1258 5
1257 1297 2
1258 1259 1
1258 1298 5
1259 1260 5
1259 1299 1
1260 1261 2
1260 1300 3
1261 1262 4
1261 1301 5
1262 1263 1
1262 1302 1
1263 1264 5
1263 1303 5
1264 1265 5
1264 1304 5
1265 1266 2
1265 1305 4
1266 1267 2
1266 1306 4
1267 1268 5
1267 1307 4
1268 1269 5
1268 1308 4
1269 1270 4
1269 1309 1
1270 1271 5
1270 1310 5
1271 1272 1
1271 1311 2
1272 1273 5
1272 1312 2
1273 1274 4
1273 1313 3
1274 1275 4
1274 1314 5
1275 1276 4
1275 1315 3
1276 1277 2
1276 1316 1
1277 1278 4
1277 1317 5
1278 1279 3
1278 1318 5
1279 1280 3
1279 1319 3
1280 1320 4
1281 1282 1
1281 1321 1
1282 1283 2
1282 1322 2
1283 1284 2
1283 1323 3
1284 1285 4
1284 1324 5
1285 1286 5
1285 1325 4
1286 1287 3
1286 1326 1
1287 1288 4
1287 1327 4
1288 1289 5
1288 1328 3
1289 1290 5
1289 1329 5
1290 1291 4
1290 1330 4
1291 1292 2
1291 1331 5
1292 1293 1
1292 1332 5
1293 1294 5
1293 1333 5
1294 1295 2
1294 1334 3
1295 1296 2
1295 1335 3
1296 1297 1
1296 1336 2
1297 1298 2
1297 1337 5
1298 1299 1
1298 1338 4
1299 1300 2
1299 1339 2
1300 1301 4
1300 1340 3
1301 1302 2
1301 1341 2
1302 1303 4
1302 1342 5
1303 1304 1
1303 1343 1
1304 1305 4
1304 1344 5
1305 1306 3
1305 1345 3
1306 1307 3
1306 1346 1
1307 1308 4
1307 1347 2
1308 1309 1
1308 1348 4
1309 1310 3
1309 1349 4
1310 1311 2
1310 1350 5
1311 1312 5
1311 1351 1
1312 1313 5
1312 1352 2
1313 1314 5
1313 1353 4
1314 1315 2
1314 1354 2
1315 1316 5
1315 1355 3
1316 1317 3
1316 1356 4
1317 1318 5
1317 1357 4
1318 1319 5
1318 1358 5
1319 1320 4
1319 1359 4
1320 1360 1
1321 1322 5
1321 1361 5
1322 1323 5
1322 1362 2
1323 1324 5
1323 1363 4
1324 1325 1
1324 1364 5
1325 1326 3
1325 1365 4
1326 1327 1
1326 1366 2
1327 1328 1
1327 1367 5
1328 1329 1
1328 1368 4
1329 1330 5
1329 1369 3
1330 1331 1
1330 1370 3
1331 1332 5
1331 1371 5
1332 1333 3
1332 1372 3
1333 1334 4
1333 1373 2
1334 1335 5
1334 1374 1
1335 1336 2
1335 1375 3
1336 1337 5
1336 1376 4
1337 1338 2
1337 1377 4
1338 1339 1
1338 1378 4
1339 1340 3
1339 1379 2
1340 1341 4
1340 1380 3
1341 1342 1
1341 1381 3
1342 1343 5
1342 1382 2
1343 1344 2
1343 1383 4
1344 1345 1
1344 1384 2
1345 1346 5
1345 1385 4
1346 1347 2
1346 1386 1
1347 1348 2
1347 1387 4
1348 1349 4
1348 1388 5
1349 1350 2
1349 1389 3
1350 1351 1
1350 1390 1
1351 1352 3
1351 1391 1
1352 1353 2
1352 1392 4
1353 1354 3
1353 1393 2
1354 1355 4
1354 1394 4
1355 1356 1
1355 1395 5
1356 1357 1
1356 1396 3
1357 1358 5
1357 1397 3
1358 1359 4
1358 1398 1
1359 1360 5
1359 1399 4
1360 1400 3
1361 1362 5
1361 1401 3
1362 1363 1
1362 1402 2
1363 1364 4
1363 1403 3
1364 1365 4
1364 1404 3
1365 1366 3
1365 1405 1
1366 1367 3
1366 1406 1
1367 1368 4
1367 1407 4
1368 1369 4
1368 1408 1
1369 1370 3
1369 1409 5
1370 1371 1
1370 1410 4
1371 1372 2
1371 1411 3
1372 1373 4
1372 1412 4
1373 1374 2
1373 1413 5
1374 1375 1
1374 1414 4
1375 1376 5
1375 1415 2
1376 1377 4
1376 1416 1
1377 1378 4
1377 1417 1
1378 1379 4
1378 1418 2
1379 1380 5
1379 1419 5
1380 1381 1
1380 1420 1
1381 1382 5
1381 1421 5
1382 1383 2
1382 1422 5
1383 1384 3
1383 1423 1
1384 1385 3
1384 1424 4
1385 1386 4
1385 1425 5
1386 1387 3
1386 1426 1
1387 1388 1
1387 1427 5
1388 1389 1
1388 1428 1
1389 1390 2
1389 1429 3
1390 1391 5
1390 1430 1
1391 1392 5
1391 1431 5
1392 1393 1
1392 1432 2
1393 1394 4
1393 1433 2
1394 1395 1
1394 1434 2
1395 1396 1
1395 1435 5
1396 1397 1
1396 1436 2
1397 1398 1
1397 1437 1
1398 1399 4
1398 1438 4
1399 1400 3
1399 1439 3
1400 1440 2
1401 1402 1
1401 1441 4
1402 1403 3
1402 1442 5
1403 1404 4
1403 1443 4
1404 1405 5
1404 1444 1
1405 1406 5
1405 1445 5
1406 1407 1
1406 1446 1
1407 1408 5
1407 1447 3
1408 1409 3
1408 1448 5
1409 1410 4
1409 1449 3
1410 1411 4
1410 1450 1
1411 1412 5
1411 1451 1
1412 1413 4
1412 1452 1
1413 1414 5
1413 1453 5
1414 1415 5
1414 1454 3
1415 1416 4
1415 1455 5
1416 1417 2
1416 1456 3
1417 1418 4
1417 1457 4
1418 1419 2
1418 1458 4
1419 1420 2
1419 1459 1
1420 1421 4
1420 1460 3
1421 1422 1
1421 1461 2
1422 1423 2
1422 1462 2
1423 1424 4
1423 1463 1
1424 1425 2
1424 1464 3
1425 1426 1
1425 1465 4
1426 1427 3
1426 1466 1
1427 1428 4
1427 1467 3
1428 1429 5
1428 1468 2
1429 1430 2
1429 1469 2
1430 1431 1
1430 1470 1
1431 1432 2
1431 1471 3
1432 1433 5
1432 1472 3
1433 1434 5
1433 1473 1
1434 1435 3
1434 1474 2
1435 1436 3
1435 1475 3
1436 1437 1
1436 1476 4
1437 1438 3
1437 1477 5
1438 1439 1
1438 1478 5
1439 1440 3
1439 1479 4
1440 1480 4
1441 1442 3
1441 1481 2
1442 1443 1
1442 1482 2
1443 1444 1
1443 1483 4
1444 1445 5
1444 1484 3
1445 1446 3
1445 1485 4
1446 1447 2
1446 1486 5
1447 1448 2
1447 1487 1
1448 1449 2
1448 1488 2
1449 1450 1
1449 1489 5
1450 1451 5
1450 1490 3
1451 1452 3
1451 1491 3
1452 1453 2
1452 1492 5
1453 1454 3
1453 1493 2
1454 1455 1
1454 1494 3
1455 1456 3
1455 1495 4
1456 1457 4
1456 1496 2
1457 1458 3
1457 1497 1
1458 1459 3
1458 1498 4
1459 1460 5
1459 1499 4
1460 1461 1
1460 1500 3
1461 1462 5
1461 1501 3
1462 1463 5
1462 1502 5
1463 1464 2
1463 1503 2
1464 1465 4
1464 1504 1
1465 1466 2
1465 1505 5
1466 1467 2
1466 1506 3
1467 1468 5
1467 1507 4
1468 1469 1
1468 1508 4
1469 1470 1
1469 1509 3
1470 1471 5
1470 1510 3
1471 1472 4
1471 1511 4
1472 1473 5
1472 1512 3
1473 1474 5
1473 1513 5
1474 1475 1
1474 1514 4
1475 1476 2
1475 1515 2
1476 1477 1
1476 1516 1
1477 1478 3
1477 1517 3
1478 1479 4
1478 1518 5
1479 1480 4
1479 1519 5
1480 1520 5
1481 1482 3
1481 1521 2
1482 1483 2
1482 1522 1
1483 1484 1
1483 1523 1
1484 1485 1
1484 1524 3
1485 1486 1
1485 1525 3
1486 1487 3
1486 1526 5
1487 1488 5
1487 1527 4
1488 1489 2
1488 1528 3
1489 1490 4
1489 1529 5
1490 1491 4
1490 1530 5
1491 1492 4
1491 1531 1
1492 1493 5
1492 1532 5
1493 1494 5
1493 1533 1
1494 1495 3
1494 1534 5
1495 1496 5
1495 1535 1
1496 1497 3
1496 1536 1
1497 1498 1
1497 1537 3
1498 1499 4
1498 1538 2
1499 1500 3
1499 1539 1
1500 1501 4
1500 1540 5
1501 1502 2
1501 1541 5
1502 1503 1
1502 1542 1
1503 1504 3
1503 1543 2
1504 1505 4
1504 1544 1
1505 1506 4
1505 1545 5
1506 1507 3
1506 1546 1
1507 1508 5
1507 1547 1
1508 1509 5
1508 1548 1
1509 1510 2
1509 1549 2
1510 1511 1
1510 1550 5
1511 1512 3
1511 1551 4
1512 1513 5
1512 1552 3
1513 1514 1
1513 1553 4
1514 1515 5
1514 1554 3
1515 1516 4
1515 1555 1
1516 1517 1
1516 1556 2
1517 1518 1
1517 1557 2
1518 1519 2
1518 1558 5
1519 1520 3
1519 1559 5
1520 1560 1
1521 1522 1
1521 1561 2
1522 1523 2
1522 1562 1
1523 1524 1
1523 1563 5
1524 1525 1
1524 1564 2
1525 1526 5
1525 1565 5
1526 1527 3
1526 1566 4
1527 1528 2
1527 1567 5
1528 1529 2
1528 1568 2
1529 1530 5
1529 1569 2
1530 1531 4
1530 1570 5
1531 1532 2
1531 1571 4
1532 1533 1
1532 1572 4
1533 1534 4
1533 1573 5
1534 1535 4
1534 1574 3
1535 1536 2
1535 1575 3
1536 1537 2
1536 1576 4
1537 1538 2
1537 1577 3
1538 1539 1
1538 1578 5
1539 1540 5
1539 1579 2
1540 1541 4
1540 1580 5
1541 1542 5
1541 1581 1
1542 1543 3
1542 1582 2
1543 1544 5
1543 1583 3
1544 1545 3
1544 1584 2
1545 1546 4
1545 1585 3
1546 1547 5
1546 1586 2
1547 1548 4
1547 1587 2
1548 1549 4
1548 1588 2
1549 1550 2
1549 1589 5
1550 1551 4
1550 1590 1
1551 1552 2
1551 1591 5
1552 1553 1
1552 1592 2
1553 1554 4
1553 1593 1
1554 1555 5
1554 1594 1
1555 1556 1
1555 1595 2
1556 1557 3
1556 1596 4
1557 1558 5
1557 1597 1
1558 1559 4
1558 1598 1
1559 1560 4
1559 1599 4
1560 1600 4
1561 1562 1
1562 1563 3
1563 1564 5
1564 1565 3
1565 1566 3
1566 1567 4
1567 1568 4
1568 1569 5
1569 1570 3
1570 1571 1
1571 1572 1
1572 1573 1
1573 1574 5
1574 1575 4
1575 1576 3
1576 1577 2
1577 1578 2
1578 1579 5
1579 1580 5
1580 1581 4
1581 1582 2
1582 1583 3
1583 1584 5
1584 1585 3
1585 1586 4
1586 1587 3
1587 1588 2
1588 1589 2
1589 1590 4
1590 1591 1
1591 1592 4
1592 1593 1
1593 1594 3
1594 1595 3
1595 1596 4
1596 1597 3
1597 1598 1
1598 1599 1
1599 1600 4
1 1561 3
2 1562 2
3 1563 2
4 1564 2
5 1565 3
6 1566 2
7 1567 4
8 1568 2
9 1569 2
10 1570 5
11 1571 4
12 1572 2
13 1573 4
14 1574 4
15 1575 2
16 1576 5
17 1577 2
18 1578 3
19 1579 1
20 1580 5
21 1581 1
22 1582 1
23 1583 2
24 1584 1
25 1585 2
26 1586 3
27 1587 5
28 1588 4
29 1589 3
30 1590 3
31 1591 5
32 1592 1
33 1593 1
34 1594 5
35 1595 3
36 1596 3
37 1597 3
38 1598 4
39 1599 5
40 1600 4
1 40 2
41 80 5
81 120 4
121 160 4
161 200 2
201 240 5
241 280 2
281 320 1
321 360 3
361 400 2
401 440 1
441 480 5
481 520 5
521 560 5
561 600 5
601 640 5
641 680 1
681 720 3
721 760 2
761 800 3
801 840 2
841 880 3
881 920 4
921 960 4
961 1000 1
1001 1040 5
1041 1080 3
1081 1120 3
1121 1160 5
1161 1200 1
1201 1240 5
1241 1280 5
1281 1320 1
1321 1360 4
1361 1400 4
1401 1440 3
1441 1480 5
1481 1520 2
1521 1560 1
1561 1600 5
